Li12 P4 S16                             
    1.000000000000000     
    13.0578945902145040    0.0000238323592420   -0.0000240999719467
     0.0000156076700477    8.1067910391285292    0.0000056337966343
    -0.0000115609654836    0.0000048580354335    6.2599511771711764
   Li   P    S 
    12     4    16
Direct
  0.8332710938967522  0.0330143952013639  0.1068089287396560
  0.3332713210924141  0.4669859381253481  0.3931941648143989
  0.1667291934468516  0.5330114285699944  0.8931901516755881
  0.6667288413933625  0.9669838019191627  0.6068088150437571
  0.1667289947267825  0.9669812790146670  0.8931932214538402
  0.6667271487913325  0.5330126476422389  0.6068086890910878
  0.8332711372255724  0.4669863322949487  0.1068066907761590
  0.3332705098210335  0.0330149383677085  0.3931903033825334
  0.5000010123662322  0.0000034638462249  0.9999911165485729
  0.9999978170846056  0.5000042034822662  0.4999930109351234
  0.5000008630068082  0.4999999470154985  0.9999967250238163
  0.9999998757010063  0.0000006480288978  0.5000021589021619
  0.5897900652214860  0.2499970966424536  0.3448224283902154
  0.0897912517009929  0.2499989713017687  0.1551862923153346
  0.4102097909964590  0.7500008562779931  0.6551773772311447
  0.9102108571184103  0.7500014971153628  0.8448230232775513
  0.6537706317585285  0.0365077839506108  0.2268064169659838
  0.1537719850439561  0.4634918299525994  0.2731946932241744
  0.3462283370423256  0.5365117376621189  0.7731932810554024
  0.8462295652027200  0.9634920875692806  0.7268057733873942
  0.3462267169677042  0.9634929798908473  0.7731921302756866
  0.8462282591402482  0.5365115914956291  0.7268054140575243
  0.6537724179354294  0.4634878919115163  0.2268066699054672
  0.1537708919876244  0.0365085687769828  0.2731976324389853
  0.4399025431559698  0.2499997600360826  0.2266041433814126
  0.9399044767730679  0.2500004202398448  0.2733968987693523
  0.5600958005740154  0.7500007943104844  0.7733956223526857
  0.0600973767948125  0.7499994661789359  0.7266055531265858
  0.6017451580219703  0.2499985970850769  0.6698754012062402
  0.1017477760601257  0.2499985525729538  0.8301287201973747
  0.3982532358551742  0.7500001783944609  0.3301233572782438
  0.8982550540962188  0.7500003151266568  0.1698751947765387
 
  0.00000000E+00  0.00000000E+00  0.00000000E+00
  0.00000000E+00  0.00000000E+00  0.00000000E+00
  0.00000000E+00  0.00000000E+00  0.00000000E+00
  0.00000000E+00  0.00000000E+00  0.00000000E+00
  0.00000000E+00  0.00000000E+00  0.00000000E+00
  0.00000000E+00  0.00000000E+00  0.00000000E+00
  0.00000000E+00  0.00000000E+00  0.00000000E+00
  0.00000000E+00  0.00000000E+00  0.00000000E+00
  0.00000000E+00  0.00000000E+00  0.00000000E+00
  0.00000000E+00  0.00000000E+00  0.00000000E+00
  0.00000000E+00  0.00000000E+00  0.00000000E+00
  0.00000000E+00  0.00000000E+00  0.00000000E+00
  0.00000000E+00  0.00000000E+00  0.00000000E+00
  0.00000000E+00  0.00000000E+00  0.00000000E+00
  0.00000000E+00  0.00000000E+00  0.00000000E+00
  0.00000000E+00  0.00000000E+00  0.00000000E+00
  0.00000000E+00  0.00000000E+00  0.00000000E+00
  0.00000000E+00  0.00000000E+00  0.00000000E+00
  0.00000000E+00  0.00000000E+00  0.00000000E+00
  0.00000000E+00  0.00000000E+00  0.00000000E+00
  0.00000000E+00  0.00000000E+00  0.00000000E+00
  0.00000000E+00  0.00000000E+00  0.00000000E+00
  0.00000000E+00  0.00000000E+00  0.00000000E+00
  0.00000000E+00  0.00000000E+00  0.00000000E+00
  0.00000000E+00  0.00000000E+00  0.00000000E+00
  0.00000000E+00  0.00000000E+00  0.00000000E+00
  0.00000000E+00  0.00000000E+00  0.00000000E+00
  0.00000000E+00  0.00000000E+00  0.00000000E+00
  0.00000000E+00  0.00000000E+00  0.00000000E+00
  0.00000000E+00  0.00000000E+00  0.00000000E+00
  0.00000000E+00  0.00000000E+00  0.00000000E+00
  0.00000000E+00  0.00000000E+00  0.00000000E+00
